INPUT_PARAMETERS
basis_type lcao
calculation scf
suffix Fe
pseudo_dir ./
orbital_dir ./
latname bcc
ntype 1
noncolin 1
lspinorb 1
smearing_method gaussian
smearing_sigma 0.01
ecutwfc 60.0
scf_thr 1e-10
ks_solver genelpa
dft_plus_u 1
orbital_corr 2
hubbard_u 2.2
#numerical_orbitals are added
