ATOMIC_SPECIES
Fe 0.0 Fe.rel-pbe-spn-rrkjus_psl.0.2.1.UPF

NUMERICAL_ORBITAL
Pt Pt_gga_6au_100Ry_4s2p2d1f.orb
O O_gga_6au_100Ry_2s2p1d.orb
Ti Ti_gga_6au_100Ry_4s2p2d1f.orb

LATTICE_CONSTANT
1.0

LATTICE_VECTORS
2.71 2.71 2.71
-2.71 2.71 2.71
-2.71 -2.71 2.71

ATOMIC_POSITIONS
Cartesian

Fe
1.0
1
0.0 0.0 0.0 m 0 0 0 mag 0.5 angle1 90.0 angle2 0.0

