ATOMIC_SPECIES
Pt 195.09 pt_pbe_v1.4.uspp.F.UPF
Ti 47.9 ti_pbe_v1.4.uspp.F.UPF
O 15.9994 O.pbe-n-kjpaw_psl.0.1.UPF

NUMERICAL_ORBITAL
Pt Pt_gga_6au_100Ry_4s2p2d1f.orb
O O_gga_6au_100Ry_2s2p1d.orb
Ti Ti_gga_6au_100Ry_4s2p2d1f.orb

LATTICE_CONSTANT
1.0

LATTICE_VECTORS
18.429446196 0.0 0.0
0.0 18.429446196 0.0
0.0 0.0 12.093376764

ATOMIC_POSITIONS
Cartesian

Pt
0.0
1
0 0 0 0 0 0

Ti
0.0
127
2.30368077 2.30368077 1.5116721 0 0 0
0 0 3.02334419 0 0 0
2.30368077 2.30368077 4.53501629 0 0 0
0 4.60736155 0 0 0 0
2.30368077 6.91104232 1.5116721 0 0 0
0 4.60736155 3.02334419 0 0 0
2.30368077 6.91104232 4.53501629 0 0 0
4.60736155 0 0 0 0 0
6.91104232 2.30368077 1.5116721 0 0 0
4.60736155 0 3.02334419 0 0 0
6.91104232 2.30368077 4.53501629 0 0 0
4.60736155 4.60736155 0 0 0 0
6.91104232 6.91104232 1.5116721 0 0 0
4.60736155 4.60736155 3.02334419 0 0 0
6.91104232 6.91104232 4.53501629 0 0 0
0 0 6.04668838 0 0 0
2.30368077 2.30368077 7.55836048 0 0 0
0 0 9.07003257 0 0 0
2.30368077 2.30368077 10.58170467 0 0 0
0 4.60736155 6.04668838 0 0 0
2.30368077 6.91104232 7.55836048 0 0 0
0 4.60736155 9.07003257 0 0 0
2.30368077 6.91104232 10.58170467 0 0 0
4.60736155 0 6.04668838 0 0 0
6.91104232 2.30368077 7.55836048 0 0 0
4.60736155 0 9.07003257 0 0 0
6.91104232 2.30368077 10.58170467 0 0 0
4.60736155 4.60736155 6.04668838 0 0 0
6.91104232 6.91104232 7.55836048 0 0 0
4.60736155 4.60736155 9.07003257 0 0 0
6.91104232 6.91104232 10.58170467 0 0 0
0 9.2147231 0 0 0 0
2.30368077 11.51840387 1.5116721 0 0 0
0 9.2147231 3.02334419 0 0 0
2.30368077 11.51840387 4.53501629 0 0 0
0 13.82208465 0 0 0 0
2.30368077 16.12576542 1.5116721 0 0 0
0 13.82208465 3.02334419 0 0 0
2.30368077 16.12576542 4.53501629 0 0 0
4.60736155 9.2147231 0 0 0 0
6.91104232 11.51840387 1.5116721 0 0 0
4.60736155 9.2147231 3.02334419 0 0 0
6.91104232 11.51840387 4.53501629 0 0 0
4.60736155 13.82208465 0 0 0 0
6.91104232 16.12576542 1.5116721 0 0 0
4.60736155 13.82208465 3.02334419 0 0 0
6.91104232 16.12576542 4.53501629 0 0 0
0 9.2147231 6.04668838 0 0 0
2.30368077 11.51840387 7.55836048 0 0 0
0 9.2147231 9.07003257 0 0 0
2.30368077 11.51840387 10.58170467 0 0 0
0 13.82208465 6.04668838 0 0 0
2.30368077 16.12576542 7.55836048 0 0 0
0 13.82208465 9.07003257 0 0 0
2.30368077 16.12576542 10.58170467 0 0 0
4.60736155 9.2147231 6.04668838 0 0 0
6.91104232 11.51840387 7.55836048 0 0 0
4.60736155 9.2147231 9.07003257 0 0 0
6.91104232 11.51840387 10.58170467 0 0 0
4.60736155 13.82208465 6.04668838 0 0 0
6.91104232 16.12576542 7.55836048 0 0 0
4.60736155 13.82208465 9.07003257 0 0 0
6.91104232 16.12576542 10.58170467 0 0 0
9.2147231 0 0 0 0 0
11.51840387 2.30368077 1.5116721 0 0 0
9.2147231 0 3.02334419 0 0 0
11.51840387 2.30368077 4.53501629 0 0 0
9.2147231 4.60736155 0 0 0 0
11.51840387 6.91104232 1.5116721 0 0 0
9.2147231 4.60736155 3.02334419 0 0 0
11.51840387 6.91104232 4.53501629 0 0 0
13.82208465 0 0 0 0 0
16.12576542 2.30368077 1.5116721 0 0 0
13.82208465 0 3.02334419 0 0 0
16.12576542 2.30368077 4.53501629 0 0 0
13.82208465 4.60736155 0 0 0 0
16.12576542 6.91104232 1.5116721 0 0 0
13.82208465 4.60736155 3.02334419 0 0 0
16.12576542 6.91104232 4.53501629 0 0 0
9.2147231 0 6.04668838 0 0 0
11.51840387 2.30368077 7.55836048 0 0 0
9.2147231 0 9.07003257 0 0 0
11.51840387 2.30368077 10.58170467 0 0 0
9.2147231 4.60736155 6.04668838 0 0 0
11.51840387 6.91104232 7.55836048 0 0 0
9.2147231 4.60736155 9.07003257 0 0 0
11.51840387 6.91104232 10.58170467 0 0 0
13.82208465 0 6.04668838 0 0 0
16.12576542 2.30368077 7.55836048 0 0 0
13.82208465 0 9.07003257 0 0 0
16.12576542 2.30368077 10.58170467 0 0 0
13.82208465 4.60736155 6.04668838 0 0 0
16.12576542 6.91104232 7.55836048 0 0 0
13.82208465 4.60736155 9.07003257 0 0 0
16.12576542 6.91104232 10.58170467 0 0 0
9.2147231 9.2147231 0 0 0 0
11.51840387 11.51840387 1.5116721 0 0 0
9.2147231 9.2147231 3.02334419 0 0 0
11.51840387 11.51840387 4.53501629 0 0 0
9.2147231 13.82208465 0 0 0 0
11.51840387 16.12576542 1.5116721 0 0 0
9.2147231 13.82208465 3.02334419 0 0 0
11.51840387 16.12576542 4.53501629 0 0 0
13.82208465 9.2147231 0 0 0 0
16.12576542 11.51840387 1.5116721 0 0 0
13.82208465 9.2147231 3.02334419 0 0 0
16.12576542 11.51840387 4.53501629 0 0 0
13.82208465 13.82208465 0 0 0 0
16.12576542 16.12576542 1.5116721 0 0 0
13.82208465 13.82208465 3.02334419 0 0 0
16.12576542 16.12576542 4.53501629 0 0 0
9.2147231 9.2147231 6.04668838 0 0 0
11.51840387 11.51840387 7.55836048 0 0 0
9.2147231 9.2147231 9.07003257 0 0 0
11.51840387 11.51840387 10.58170467 0 0 0
9.2147231 13.82208465 6.04668838 0 0 0
11.51840387 16.12576542 7.55836048 0 0 0
9.2147231 13.82208465 9.07003257 0 0 0
11.51840387 16.12576542 10.58170467 0 0 0
13.82208465 9.2147231 6.04668838 0 0 0
16.12576542 11.51840387 7.55836048 0 0 0
13.82208465 9.2147231 9.07003257 0 0 0
16.12576542 11.51840387 10.58170467 0 0 0
13.82208465 13.82208465 6.04668838 0 0 0
16.12576542 16.12576542 7.55836048 0 0 0
13.82208465 13.82208465 9.07003257 0 0 0
16.12576542 16.12576542 10.58170467 0 0 0

O
0.0
256
1.40605046 1.40605046 0 0 0 0
3.20131109 3.20131109 0 0 0 0
3.70973123 0.89763032 1.5116721 0 0 0
0.89763032 3.70973123 1.5116721 0 0 0
1.40605046 1.40605046 3.02334419 0 0 0
3.20131109 3.20131109 3.02334419 0 0 0
3.70973123 0.89763032 4.53501629 0 0 0
0.89763032 3.70973123 4.53501629 0 0 0
1.40605046 6.013412 0 0 0 0
3.20131109 7.80867264 0 0 0 0
3.70973123 5.50499187 1.5116721 0 0 0
0.89763032 8.31709278 1.5116721 0 0 0
1.40605046 6.013412 3.02334419 0 0 0
3.20131109 7.80867264 3.02334419 0 0 0
3.70973123 5.50499187 4.53501629 0 0 0
0.89763032 8.31709278 4.53501629 0 0 0
6.013412 1.40605046 0 0 0 0
7.80867264 3.20131109 0 0 0 0
8.31709278 0.89763032 1.5116721 0 0 0
5.50499187 3.70973123 1.5116721 0 0 0
6.013412 1.40605046 3.02334419 0 0 0
7.80867264 3.20131109 3.02334419 0 0 0
8.31709278 0.89763032 4.53501629 0 0 0
5.50499187 3.70973123 4.53501629 0 0 0
6.013412 6.013412 0 0 0 0
7.80867264 7.80867264 0 0 0 0
8.31709278 5.50499187 1.5116721 0 0 0
5.50499187 8.31709278 1.5116721 0 0 0
6.013412 6.013412 3.02334419 0 0 0
7.80867264 7.80867264 3.02334419 0 0 0
8.31709278 5.50499187 4.53501629 0 0 0
5.50499187 8.31709278 4.53501629 0 0 0
1.40605046 1.40605046 6.04668838 0 0 0
3.20131109 3.20131109 6.04668838 0 0 0
3.70973123 0.89763032 7.55836048 0 0 0
0.89763032 3.70973123 7.55836048 0 0 0
1.40605046 1.40605046 9.07003257 0 0 0
3.20131109 3.20131109 9.07003257 0 0 0
3.70973123 0.89763032 10.58170467 0 0 0
0.89763032 3.70973123 10.58170467 0 0 0
1.40605046 6.013412 6.04668838 0 0 0
3.20131109 7.80867264 6.04668838 0 0 0
3.70973123 5.50499187 7.55836048 0 0 0
0.89763032 8.31709278 7.55836048 0 0 0
1.40605046 6.013412 9.07003257 0 0 0
3.20131109 7.80867264 9.07003257 0 0 0
3.70973123 5.50499187 10.58170467 0 0 0
0.89763032 8.31709278 10.58170467 0 0 0
6.013412 1.40605046 6.04668838 0 0 0
7.80867264 3.20131109 6.04668838 0 0 0
8.31709278 0.89763032 7.55836048 0 0 0
5.50499187 3.70973123 7.55836048 0 0 0
6.013412 1.40605046 9.07003257 0 0 0
7.80867264 3.20131109 9.07003257 0 0 0
8.31709278 0.89763032 10.58170467 0 0 0
5.50499187 3.70973123 10.58170467 0 0 0
6.013412 6.013412 6.04668838 0 0 0
7.80867264 7.80867264 6.04668838 0 0 0
8.31709278 5.50499187 7.55836048 0 0 0
5.50499187 8.31709278 7.55836048 0 0 0
6.013412 6.013412 9.07003257 0 0 0
7.80867264 7.80867264 9.07003257 0 0 0
8.31709278 5.50499187 10.58170467 0 0 0
5.50499187 8.31709278 10.58170467 0 0 0
1.40605046 10.62077356 0 0 0 0
3.20131109 12.41603419 0 0 0 0
3.70973123 10.11235342 1.5116721 0 0 0
0.89763032 12.92445433 1.5116721 0 0 0
1.40605046 10.62077356 3.02334419 0 0 0
3.20131109 12.41603419 3.02334419 0 0 0
3.70973123 10.11235342 4.53501629 0 0 0
0.89763032 12.92445433 4.53501629 0 0 0
1.40605046 15.2281351 0 0 0 0
3.20131109 17.02339574 0 0 0 0
3.70973123 14.71971497 1.5116721 0 0 0
0.89763032 17.53181588 1.5116721 0 0 0
1.40605046 15.2281351 3.02334419 0 0 0
3.20131109 17.02339574 3.02334419 0 0 0
3.70973123 14.71971497 4.53501629 0 0 0
0.89763032 17.53181588 4.53501629 0 0 0
6.013412 10.62077356 0 0 0 0
7.80867264 12.41603419 0 0 0 0
8.31709278 10.11235342 1.5116721 0 0 0
5.50499187 12.92445433 1.5116721 0 0 0
6.013412 10.62077356 3.02334419 0 0 0
7.80867264 12.41603419 3.02334419 0 0 0
8.31709278 10.11235342 4.53501629 0 0 0
5.50499187 12.92445433 4.53501629 0 0 0
6.013412 15.2281351 0 0 0 0
7.80867264 17.02339574 0 0 0 0
8.31709278 14.71971497 1.5116721 0 0 0
5.50499187 17.53181588 1.5116721 0 0 0
6.013412 15.2281351 3.02334419 0 0 0
7.80867264 17.02339574 3.02334419 0 0 0
8.31709278 14.71971497 4.53501629 0 0 0
5.50499187 17.53181588 4.53501629 0 0 0
1.40605046 10.62077356 6.04668838 0 0 0
3.20131109 12.41603419 6.04668838 0 0 0
3.70973123 10.11235342 7.55836048 0 0 0
0.89763032 12.92445433 7.55836048 0 0 0
1.40605046 10.62077356 9.07003257 0 0 0
3.20131109 12.41603419 9.07003257 0 0 0
3.70973123 10.11235342 10.58170467 0 0 0
0.89763032 12.92445433 10.58170467 0 0 0
1.40605046 15.2281351 6.04668838 0 0 0
3.20131109 17.02339574 6.04668838 0 0 0
3.70973123 14.71971497 7.55836048 0 0 0
0.89763032 17.53181588 7.55836048 0 0 0
1.40605046 15.2281351 9.07003257 0 0 0
3.20131109 17.02339574 9.07003257 0 0 0
3.70973123 14.71971497 10.58170467 0 0 0
0.89763032 17.53181588 10.58170467 0 0 0
6.013412 10.62077356 6.04668838 0 0 0
7.80867264 12.41603419 6.04668838 0 0 0
8.31709278 10.11235342 7.55836048 0 0 0
5.50499187 12.92445433 7.55836048 0 0 0
6.013412 10.62077356 9.07003257 0 0 0
7.80867264 12.41603419 9.07003257 0 0 0
8.31709278 10.11235342 10.58170467 0 0 0
5.50499187 12.92445433 10.58170467 0 0 0
6.013412 15.2281351 6.04668838 0 0 0
7.80867264 17.02339574 6.04668838 0 0 0
8.31709278 14.71971497 7.55836048 0 0 0
5.50499187 17.53181588 7.55836048 0 0 0
6.013412 15.2281351 9.07003257 0 0 0
7.80867264 17.02339574 9.07003257 0 0 0
8.31709278 14.71971497 10.58170467 0 0 0
5.50499187 17.53181588 10.58170467 0 0 0
10.62077356 1.40605046 0 0 0 0
12.41603419 3.20131109 0 0 0 0
12.92445433 0.89763032 1.5116721 0 0 0
10.11235342 3.70973123 1.5116721 0 0 0
10.62077356 1.40605046 3.02334419 0 0 0
12.41603419 3.20131109 3.02334419 0 0 0
12.92445433 0.89763032 4.53501629 0 0 0
10.11235342 3.70973123 4.53501629 0 0 0
10.62077356 6.013412 0 0 0 0
12.41603419 7.80867264 0 0 0 0
12.92445433 5.50499187 1.5116721 0 0 0
10.11235342 8.31709278 1.5116721 0 0 0
10.62077356 6.013412 3.02334419 0 0 0
12.41603419 7.80867264 3.02334419 0 0 0
12.92445433 5.50499187 4.53501629 0 0 0
10.11235342 8.31709278 4.53501629 0 0 0
15.2281351 1.40605046 0 0 0 0
17.02339574 3.20131109 0 0 0 0
17.53181588 0.89763032 1.5116721 0 0 0
14.71971497 3.70973123 1.5116721 0 0 0
15.2281351 1.40605046 3.02334419 0 0 0
17.02339574 3.20131109 3.02334419 0 0 0
17.53181588 0.89763032 4.53501629 0 0 0
14.71971497 3.70973123 4.53501629 0 0 0
15.2281351 6.013412 0 0 0 0
17.02339574 7.80867264 0 0 0 0
17.53181588 5.50499187 1.5116721 0 0 0
14.71971497 8.31709278 1.5116721 0 0 0
15.2281351 6.013412 3.02334419 0 0 0
17.02339574 7.80867264 3.02334419 0 0 0
17.53181588 5.50499187 4.53501629 0 0 0
14.71971497 8.31709278 4.53501629 0 0 0
10.62077356 1.40605046 6.04668838 0 0 0
12.41603419 3.20131109 6.04668838 0 0 0
12.92445433 0.89763032 7.55836048 0 0 0
10.11235342 3.70973123 7.55836048 0 0 0
10.62077356 1.40605046 9.07003257 0 0 0
12.41603419 3.20131109 9.07003257 0 0 0
12.92445433 0.89763032 10.58170467 0 0 0
10.11235342 3.70973123 10.58170467 0 0 0
10.62077356 6.013412 6.04668838 0 0 0
12.41603419 7.80867264 6.04668838 0 0 0
12.92445433 5.50499187 7.55836048 0 0 0
10.11235342 8.31709278 7.55836048 0 0 0
10.62077356 6.013412 9.07003257 0 0 0
12.41603419 7.80867264 9.07003257 0 0 0
12.92445433 5.50499187 10.58170467 0 0 0
10.11235342 8.31709278 10.58170467 0 0 0
15.2281351 1.40605046 6.04668838 0 0 0
17.02339574 3.20131109 6.04668838 0 0 0
17.53181588 0.89763032 7.55836048 0 0 0
14.71971497 3.70973123 7.55836048 0 0 0
15.2281351 1.40605046 9.07003257 0 0 0
17.02339574 3.20131109 9.07003257 0 0 0
17.53181588 0.89763032 10.58170467 0 0 0
14.71971497 3.70973123 10.58170467 0 0 0
15.2281351 6.013412 6.04668838 0 0 0
17.02339574 7.80867264 6.04668838 0 0 0
17.53181588 5.50499187 7.55836048 0 0 0
14.71971497 8.31709278 7.55836048 0 0 0
15.2281351 6.013412 9.07003257 0 0 0
17.02339574 7.80867264 9.07003257 0 0 0
17.53181588 5.50499187 10.58170467 0 0 0
14.71971497 8.31709278 10.58170467 0 0 0
10.62077356 10.62077356 0 0 0 0
12.41603419 12.41603419 0 0 0 0
12.92445433 10.11235342 1.5116721 0 0 0
10.11235342 12.92445433 1.5116721 0 0 0
10.62077356 10.62077356 3.02334419 0 0 0
12.41603419 12.41603419 3.02334419 0 0 0
12.92445433 10.11235342 4.53501629 0 0 0
10.11235342 12.92445433 4.53501629 0 0 0
10.62077356 15.2281351 0 0 0 0
12.41603419 17.02339574 0 0 0 0
12.92445433 14.71971497 1.5116721 0 0 0
10.11235342 17.53181588 1.5116721 0 0 0
10.62077356 15.2281351 3.02334419 0 0 0
12.41603419 17.02339574 3.02334419 0 0 0
12.92445433 14.71971497 4.53501629 0 0 0
10.11235342 17.53181588 4.53501629 0 0 0
15.2281351 10.62077356 0 0 0 0
17.02339574 12.41603419 0 0 0 0
17.53181588 10.11235342 1.5116721 0 0 0
14.71971497 12.92445433 1.5116721 0 0 0
15.2281351 10.62077356 3.02334419 0 0 0
17.02339574 12.41603419 3.02334419 0 0 0
17.53181588 10.11235342 4.53501629 0 0 0
14.71971497 12.92445433 4.53501629 0 0 0
15.2281351 15.2281351 0 0 0 0
17.02339574 17.02339574 0 0 0 0
17.53181588 14.71971497 1.5116721 0 0 0
14.71971497 17.53181588 1.5116721 0 0 0
15.2281351 15.2281351 3.02334419 0 0 0
17.02339574 17.02339574 3.02334419 0 0 0
17.53181588 14.71971497 4.53501629 0 0 0
14.71971497 17.53181588 4.53501629 0 0 0
10.62077356 10.62077356 6.04668838 0 0 0
12.41603419 12.41603419 6.04668838 0 0 0
12.92445433 10.11235342 7.55836048 0 0 0
10.11235342 12.92445433 7.55836048 0 0 0
10.62077356 10.62077356 9.07003257 0 0 0
12.41603419 12.41603419 9.07003257 0 0 0
12.92445433 10.11235342 10.58170467 0 0 0
10.11235342 12.92445433 10.58170467 0 0 0
10.62077356 15.2281351 6.04668838 0 0 0
12.41603419 17.02339574 6.04668838 0 0 0
12.92445433 14.71971497 7.55836048 0 0 0
10.11235342 17.53181588 7.55836048 0 0 0
10.62077356 15.2281351 9.07003257 0 0 0
12.41603419 17.02339574 9.07003257 0 0 0
12.92445433 14.71971497 10.58170467 0 0 0
10.11235342 17.53181588 10.58170467 0 0 0
15.2281351 10.62077356 6.04668838 0 0 0
17.02339574 12.41603419 6.04668838 0 0 0
17.53181588 10.11235342 7.55836048 0 0 0
14.71971497 12.92445433 7.55836048 0 0 0
15.2281351 10.62077356 9.07003257 0 0 0
17.02339574 12.41603419 9.07003257 0 0 0
17.53181588 10.11235342 10.58170467 0 0 0
14.71971497 12.92445433 10.58170467 0 0 0
15.2281351 15.2281351 6.04668838 0 0 0
17.02339574 17.02339574 6.04668838 0 0 0
17.53181588 14.71971497 7.55836048 0 0 0
14.71971497 17.53181588 7.55836048 0 0 0
15.2281351 15.2281351 9.07003257 0 0 0
17.02339574 17.02339574 9.07003257 0 0 0
17.53181588 14.71971497 10.58170467 0 0 0
14.71971497 17.53181588 10.58170467 0 0 0

